p wcnf 22 65 66
1 -1 0
66 1 2 -11 0
66 1 -2 11 0
66 -1 2 11 0
66 -1 -2 -11 0
66 1 2 -12 0
66 1 -2 12 0
66 -1 2 12 0
66 -1 -2 -12 0
1 -2 0
66 11 3 -13 0
66 11 -3 13 0
66 -11 3 13 0
66 -11 -3 -13 0
66 2 3 -14 0
66 2 -3 14 0
66 -2 3 14 0
66 -2 -3 -14 0
1 -3 0
66 13 4 -15 0
66 13 -4 15 0
66 -13 4 15 0
66 -13 -4 -15 0
66 3 4 -16 0
66 3 -4 16 0
66 -3 4 16 0
66 -3 -4 -16 0
1 -4 0
66 12 5 -17 0
66 12 -5 17 0
66 -12 5 17 0
66 -12 -5 -17 0
1 -5 0
66 17 6 -18 0
66 17 -6 18 0
66 -17 6 18 0
66 -17 -6 -18 0
66 14 6 -19 0
66 14 -6 19 0
66 -14 6 19 0
66 -14 -6 -19 0
1 -6 0
66 19 7 -20 0
66 19 -7 20 0
66 -19 7 20 0
66 -19 -7 -20 0
66 16 7 -21 0
66 16 -7 21 0
66 -16 7 21 0
66 -16 -7 -21 0
1 -7 0
1 -8 0
66 8 9 -22 0
66 8 -9 22 0
66 -8 9 22 0
66 -8 -9 -22 0
1 -9 0
1 -10 0
66 -15 0
66 -18 0
66 -20 0
66 -8 0
66 -22 0
66 -10 0
66 21 0
